db/data/3148758987189111882333124646519329459.z3.out
-------------------
2500.319879703
